0
Node Left Objective IInf Best_Integer Best_Bound ItCnt Gap
0+ 0 nan nan 136.4723 0.0000 nan 100.00%
0+ 0 nan nan 99.1655 0.0000 nan 100.00%
0 0 33.3849 15 99.1655 33.3849 159 66.33%
0+ 0 nan nan 85.5351 33.3849 nan 60.97%
0+ 0 nan nan 75.8330 33.3849 nan 55.98%
0+ 0 nan nan 74.2892 33.3849 nan 55.06%
0 2 33.3849 15 74.2892 33.3849 159 55.06%
CPXPARAM_MIP_Cuts_GUBCovers 0
1
Node Left Objective IInf Best_Integer Best_Bound ItCnt Gap
0+ 0 nan nan 136.4723 0.0000 nan 100.00%
0+ 0 nan nan 99.1655 0.0000 nan 100.00%
0 0 0.0000 28 99.1655 0.0000 115 100.00%
0+ 0 nan nan 78.9783 0.0000 nan 100.00%
0+ 0 nan nan 62.2992 0.0000 nan 100.00%
0+ 0 nan nan 61.9776 0.0000 nan 100.00%
0+ 0 nan nan 57.5826 0.0000 nan 100.00%
0+ 0 nan nan 55.1653 0.0000 nan 100.00%
0 2 0.0000 28 55.1653 0.0000 115 100.00%
CPXPARAM_MIP_Cuts_GUBCovers 0
2
Node Left Objective IInf Best_Integer Best_Bound ItCnt Gap
0+ 0 nan nan 136.4723 0.0000 nan 100.00%
0+ 0 nan nan 69.8576 0.0000 nan 100.00%
0 0 24.3849 14 69.8576 24.3849 151 65.09%
0+ 0 nan nan 48.7484 24.3849 nan 49.98%
0+ 0 nan nan 48.0913 24.3849 nan 49.29%
0 2 24.3849 14 48.0913 24.3849 151 49.29%
CPXPARAM_MIP_Cuts_GUBCovers 0
3
Node Left Objective IInf Best_Integer Best_Bound ItCnt Gap
0+ 0 nan nan 136.4723 0.0000 nan 100.00%
0+ 0 nan nan 75.0384 0.0000 nan 100.00%
0 0 0.0000 24 75.0384 0.0000 120 100.00%
0+ 0 nan nan 36.5345 0.0000 nan 100.00%
0+ 0 nan nan 17.6004 0.0000 nan 100.00%
0 2 0.0000 24 17.6004 0.0000 120 100.00%
CPXPARAM_MIP_Cuts_GUBCovers 0
4
Node Left Objective IInf Best_Integer Best_Bound ItCnt Gap
0+ 0 nan nan 115.1924 0.0000 nan 100.00%
0+ 0 nan nan 108.1598 0.0000 nan 100.00%
0+ 0 nan nan 98.2525 0.0000 nan 100.00%
0 0 43.8454 17 98.2525 43.8454 151 55.37%
0+ 0 nan nan 69.2925 43.8454 nan 36.72%
0+ 0 nan nan 63.2858 43.8454 nan 30.72%
0 2 43.8454 17 63.2858 43.8454 151 30.72%
CPXPARAM_MIP_Cuts_GUBCovers 0
5
Node Left Objective IInf Best_Integer Best_Bound ItCnt Gap
0+ 0 nan nan 115.1924 0.0000 nan 100.00%
0+ 0 nan nan 108.1598 0.0000 nan 100.00%
0+ 0 nan nan 79.8300 0.0000 nan 100.00%
0 0 0.0000 27 79.8300 0.0000 119 100.00%
0+ 0 nan nan 36.1020 0.0000 nan 100.00%
0+ 0 nan nan 36.0672 0.0000 nan 100.00%
0+ 0 nan nan 34.6600 0.0000 nan 100.00%
0+ 0 nan nan 29.7748 0.0000 nan 100.00%
0 2 0.0000 27 29.7748 0.0000 119 100.00%
CPXPARAM_MIP_Cuts_GUBCovers 0
6
Node Left Objective IInf Best_Integer Best_Bound ItCnt Gap
0+ 0 nan nan 115.1924 0.0000 nan 100.00%
0+ 0 nan nan 81.9438 0.0000 nan 100.00%
0 0 43.8454 12 81.9438 43.8454 158 46.49%
0+ 0 nan nan 60.6985 43.8454 nan 27.77%
0+ 0 nan nan 54.4303 43.8454 nan 19.45%
0 2 43.8454 10 54.4303 43.8454 158 19.45%
CPXPARAM_MIP_Cuts_GUBCovers 0
7
Node Left Objective IInf Best_Integer Best_Bound ItCnt Gap
0+ 0 nan nan 115.1924 0.0000 nan 100.00%
0+ 0 nan nan 81.9438 0.0000 nan 100.00%
0 0 0.0000 23 81.9438 0.0000 124 100.00%
0+ 0 nan nan 22.7644 0.0000 nan 100.00%
0+ 0 nan nan 18.6807 0.0000 nan 100.00%
0+ 0 nan nan 14.1863 0.0000 nan 100.00%
0 2 0.0000 23 14.1863 0.0000 124 100.00%
CPXPARAM_MIP_Cuts_GUBCovers 0
8
Node Left Objective IInf Best_Integer Best_Bound ItCnt Gap
0+ 0 nan nan 131.6037 0.0000 nan 100.00%
0+ 0 nan nan 111.2422 0.0000 nan 100.00%
0 0 56.1710 14 111.2422 56.1710 148 49.51%
0+ 0 nan nan 111.0462 56.1710 nan 49.42%
0+ 0 nan nan 86.8760 56.1710 nan 35.34%
0 2 56.1710 14 86.8760 56.1710 148 35.34%
CPXPARAM_MIP_Cuts_GUBCovers 0
9
Node Left Objective IInf Best_Integer Best_Bound ItCnt Gap
0+ 0 nan nan 131.6037 0.0000 nan 100.00%
0+ 0 nan nan 111.2422 0.0000 nan 100.00%
0 0 0.0000 28 111.2422 0.0000 121 100.00%
0+ 0 nan nan 69.1407 0.0000 nan 100.00%
0+ 0 nan nan 36.6832 0.0000 nan 100.00%
0+ 0 nan nan 34.4778 0.0000 nan 100.00%
0 2 0.0000 28 34.4778 0.0000 121 100.00%
CPXPARAM_MIP_Cuts_GUBCovers 0
10
Node Left Objective IInf Best_Integer Best_Bound ItCnt Gap
0+ 0 nan nan 131.6037 0.0000 nan 100.00%
0+ 0 nan nan 99.6733 0.0000 nan 100.00%
0 0 41.1710 14 99.6733 41.1710 157 58.69%
0+ 0 nan nan 79.9778 41.1710 nan 48.52%
0+ 0 nan nan 79.0773 41.1710 nan 47.94%
0 2 41.1710 14 79.0773 41.1710 157 47.94%
CPXPARAM_MIP_Cuts_GUBCovers 0
11
Node Left Objective IInf Best_Integer Best_Bound ItCnt Gap
0+ 0 nan nan 131.6037 0.0000 nan 100.00%
0+ 0 nan nan 99.6733 0.0000 nan 100.00%
0 0 0.0000 23 99.6733 0.0000 120 100.00%
0+ 0 nan nan 65.2931 0.0000 nan 100.00%
0+ 0 nan nan 33.3667 0.0000 nan 100.00%
0+ 0 nan nan 28.1060 0.0000 nan 100.00%
0 2 0.0000 23 28.1060 0.0000 120 100.00%
CPXPARAM_MIP_Cuts_GUBCovers 0
12
Node Left Objective IInf Best_Integer Best_Bound ItCnt Gap
0+ 0 nan nan 110.3567 0.0000 nan 100.00%
0+ 0 nan nan 96.6816 0.0000 nan 100.00%
0 0 34.1191 21 96.6816 34.1191 158 64.71%
0+ 0 nan nan 91.0724 34.1191 nan 62.54%
0+ 0 nan nan 74.7150 34.1191 nan 54.33%
0 2 34.1191 21 74.7150 34.1191 158 54.33%
CPXPARAM_MIP_Cuts_GUBCovers 0
13
Node Left Objective IInf Best_Integer Best_Bound ItCnt Gap
0+ 0 nan nan 110.3567 0.0000 nan 100.00%
0+ 0 nan nan 96.6816 0.0000 nan 100.00%
0 0 0.0000 27 96.6816 0.0000 127 100.00%
0+ 0 nan nan 76.3632 0.0000 nan 100.00%
0+ 0 nan nan 65.1242 0.0000 nan 100.00%
0+ 0 nan nan 40.7337 0.0000 nan 100.00%
0 2 0.0000 27 40.7337 0.0000 127 100.00%
CPXPARAM_MIP_Cuts_GUBCovers 0
14
Node Left Objective IInf Best_Integer Best_Bound ItCnt Gap
0+ 0 nan nan 110.3567 0.0000 nan 100.00%
0+ 0 nan nan 82.1268 0.0000 nan 100.00%
0 0 31.1191 14 82.1268 31.1191 165 62.11%
0+ 0 nan nan 72.3622 31.1191 nan 57.00%
0+ 0 nan nan 64.1618 31.1191 nan 51.50%
0 2 31.1191 14 64.1618 31.1191 165 51.50%
CPXPARAM_MIP_Cuts_GUBCovers 0
15
Node Left Objective IInf Best_Integer Best_Bound ItCnt Gap
0+ 0 nan nan 110.3567 0.0000 nan 100.00%
0+ 0 nan nan 82.1268 0.0000 nan 100.00%
0 0 0.0000 23 82.1268 0.0000 113 100.00%
0+ 0 nan nan 49.7602 0.0000 nan 100.00%
0+ 0 nan nan 40.6577 0.0000 nan 100.00%
0+ 0 nan nan 29.2998 0.0000 nan 100.00%
0 2 0.0000 23 29.2998 0.0000 113 100.00%
CPXPARAM_MIP_Cuts_GUBCovers 0
16
Node Left Objective IInf Best_Integer Best_Bound ItCnt Gap
0+ 0 nan nan 109.2984 0.0000 nan 100.00%
0+ 0 nan nan 97.6971 0.0000 nan 100.00%
0 0 41.5886 15 97.6971 41.5886 169 57.43%
0+ 0 nan nan 88.2052 41.5886 nan 52.85%
0+ 0 nan nan 83.7281 41.5886 nan 50.33%
0+ 0 nan nan 66.1527 41.5886 nan 37.13%
0 2 41.5886 15 66.1527 41.5886 169 37.13%
CPXPARAM_MIP_Cuts_GUBCovers 0
17
Node Left Objective IInf Best_Integer Best_Bound ItCnt Gap
0+ 0 nan nan 109.2984 0.0000 nan 100.00%
0+ 0 nan nan 97.6971 0.0000 nan 100.00%
0 0 0.0000 28 97.6971 0.0000 112 100.00%
0+ 0 nan nan 85.3739 0.0000 nan 100.00%
0+ 0 nan nan 72.0582 0.0000 nan 100.00%
0+ 0 nan nan 35.9896 0.0000 nan 100.00%
0 2 0.0000 28 35.9896 0.0000 112 100.00%
CPXPARAM_MIP_Cuts_GUBCovers 0
18
Node Left Objective IInf Best_Integer Best_Bound ItCnt Gap
0+ 0 nan nan 109.2984 0.0000 nan 100.00%
0+ 0 nan nan 86.6088 0.0000 nan 100.00%
0 0 47.5886 9 86.6088 47.5886 159 45.05%
0+ 0 nan nan 60.8649 47.5886 nan 21.81%
0+ 0 nan nan 59.2328 47.5886 nan 19.66%
0 2 47.5886 9 59.2328 47.5886 159 19.66%
CPXPARAM_MIP_Cuts_GUBCovers 0
19
Node Left Objective IInf Best_Integer Best_Bound ItCnt Gap
0+ 0 nan nan 109.2984 0.0000 nan 100.00%
0+ 0 nan nan 86.6088 0.0000 nan 100.00%
0 0 0.0000 23 86.6088 0.0000 120 100.00%
0+ 0 nan nan 30.7528 0.0000 nan 100.00%
0+ 0 nan nan 28.9245 0.0000 nan 100.00%
0+ 0 nan nan 25.7928 0.0000 nan 100.00%
0 2 0.0000 23 25.7928 0.0000 120 100.00%
CPXPARAM_MIP_Cuts_GUBCovers 0
20
Node Left Objective IInf Best_Integer Best_Bound ItCnt Gap
0+ 0 nan nan 93.3792 0.0000 nan 100.00%
0+ 0 nan nan 84.6822 0.0000 nan 100.00%
0 0 25.2745 20 84.6822 25.2745 154 70.15%
0+ 0 nan nan 41.6508 25.2745 nan 39.32%
0+ 0 nan nan 38.3625 25.2745 nan 34.12%
0 2 25.2745 20 38.3625 25.2745 154 34.12%
CPXPARAM_MIP_Cuts_GUBCovers 0
21
Node Left Objective IInf Best_Integer Best_Bound ItCnt Gap
0+ 0 nan nan 93.3792 0.0000 nan 100.00%
0+ 0 nan nan 84.6822 0.0000 nan 100.00%
0 0 0.0000 27 84.6822 0.0000 119 100.00%
0+ 0 nan nan 44.4240 0.0000 nan 100.00%
0+ 0 nan nan 18.0196 0.0000 nan 100.00%
0+ 0 nan nan 14.9570 0.0000 nan 100.00%
0 2 0.0000 27 14.9570 0.0000 119 100.00%
CPXPARAM_MIP_Cuts_GUBCovers 0
22
Node Left Objective IInf Best_Integer Best_Bound ItCnt Gap
0+ 0 nan nan 93.3792 0.0000 nan 100.00%
0+ 0 nan nan 77.4137 0.0000 nan 100.00%
0 0 25.2745 12 77.4137 25.2745 170 67.35%
0+ 0 nan nan 37.8382 25.2745 nan 33.20%
0 2 25.2745 12 37.8382 25.2745 170 33.20%
CPXPARAM_MIP_Cuts_GUBCovers 0
23
Node Left Objective IInf Best_Integer Best_Bound ItCnt Gap
0+ 0 nan nan 93.3792 0.0000 nan 100.00%
0+ 0 nan nan 77.4137 0.0000 nan 100.00%
0 0 0.0000 22 77.4137 0.0000 113 100.00%
0+ 0 nan nan 17.3568 0.0000 nan 100.00%
0+ 0 nan nan 8.3600 0.0000 nan 100.00%
0+ 0 nan nan 8.2690 0.0000 nan 100.00%
0 2 0.0000 22 8.2690 0.0000 113 100.00%
CPXPARAM_MIP_Cuts_GUBCovers 0
24
Node Left Objective IInf Best_Integer Best_Bound ItCnt Gap
0+ 0 nan nan 94.5045 0.0000 nan 100.00%
0+ 0 nan nan 83.7373 0.0000 nan 100.00%
0 0 29.8402 15 83.7373 29.8402 167 64.36%
0+ 0 nan nan 51.8847 29.8402 nan 42.49%
0+ 0 nan nan 44.8049 29.8402 nan 33.40%
0 2 29.8402 15 44.8049 29.8402 167 33.40%
CPXPARAM_MIP_Cuts_GUBCovers 0
25
Node Left Objective IInf Best_Integer Best_Bound ItCnt Gap
0+ 0 nan nan 94.5045 0.0000 nan 100.00%
0+ 0 nan nan 83.7373 0.0000 nan 100.00%
0 0 0.0000 27 83.7373 0.0000 118 100.00%
0+ 0 nan nan 36.3258 0.0000 nan 100.00%
0+ 0 nan nan 23.3468 0.0000 nan 100.00%
0+ 0 nan nan 18.1600 0.0000 nan 100.00%
0 2 0.0000 27 18.1600 0.0000 118 100.00%
CPXPARAM_MIP_Cuts_GUBCovers 0
26
Node Left Objective IInf Best_Integer Best_Bound ItCnt Gap
0+ 0 nan nan 94.5045 0.0000 nan 100.00%
0+ 0 nan nan 77.5045 0.0000 nan 100.00%
0 0 29.8490 11 77.5045 29.8490 180 61.49%
0+ 0 nan nan 39.9570 29.8490 nan 25.30%
0+ 0 nan nan 39.9548 29.8490 nan 25.29%
0 2 29.8490 9 39.9548 29.8490 180 25.29%
CPXPARAM_MIP_Cuts_GUBCovers 0
27
Node Left Objective IInf Best_Integer Best_Bound ItCnt Gap
0+ 0 nan nan 94.5045 0.0000 nan 100.00%
0+ 0 nan nan 78.5671 0.0000 nan 100.00%
0 0 0.0000 22 78.5671 0.0000 116 100.00%
0+ 0 nan nan 24.3492 0.0000 nan 100.00%
0+ 0 nan nan 16.7504 0.0000 nan 100.00%
0+ 0 nan nan 14.5606 0.0000 nan 100.00%
0 2 0.0000 22 14.5606 0.0000 116 100.00%
CPXPARAM_MIP_Cuts_GUBCovers 0
28
Node Left Objective IInf Best_Integer Best_Bound ItCnt Gap
0+ 0 nan nan 133.7092 0.0000 nan 100.00%
0+ 0 nan nan 129.6212 0.0000 nan 100.00%
0+ 0 nan nan 108.6480 0.0000 nan 100.00%
0 0 56.4662 14 108.6480 56.4662 159 48.03%
0+ 0 nan nan 85.0734 56.4662 nan 33.63%
0+ 0 nan nan 84.6562 56.4662 nan 33.30%
0+ 0 nan nan 82.6263 56.4662 nan 31.66%
0 2 56.4662 14 82.6263 56.4662 159 31.66%
CPXPARAM_MIP_Cuts_GUBCovers 0
29
Node Left Objective IInf Best_Integer Best_Bound ItCnt Gap
0+ 0 nan nan 133.7092 0.0000 nan 100.00%
0+ 0 nan nan 129.6212 0.0000 nan 100.00%
0 0 0.0000 27 129.6212 0.0000 120 100.00%
0+ 0 nan nan 34.2931 0.0000 nan 100.00%
0+ 0 nan nan 22.1494 0.0000 nan 100.00%
0 2 0.0000 27 22.1494 0.0000 120 100.00%
CPXPARAM_MIP_Cuts_GUBCovers 0
30
Node Left Objective IInf Best_Integer Best_Bound ItCnt Gap
0+ 0 nan nan 133.7092 0.0000 nan 100.00%
0+ 0 nan nan 114.7297 0.0000 nan 100.00%
0 0 62.4662 6 114.7297 62.4662 162 45.55%
0+ 0 nan nan 72.5749 62.4662 nan 13.93%
0+ 0 nan nan 71.6433 62.4662 nan 12.81%
0 2 62.4662 6 71.6433 62.4662 162 12.81%
CPXPARAM_MIP_Cuts_GUBCovers 0
31
Node Left Objective IInf Best_Integer Best_Bound ItCnt Gap
0+ 0 nan nan 133.7092 0.0000 nan 100.00%
0+ 0 nan nan 114.7297 0.0000 nan 100.00%
0 0 0.0000 23 114.7297 0.0000 132 100.00%
0+ 0 nan nan 51.7630 0.0000 nan 100.00%
0+ 0 nan nan 49.2893 0.0000 nan 100.00%
0+ 0 nan nan 31.2463 0.0000 nan 100.00%
0 2 0.0000 23 31.2463 0.0000 132 100.00%
CPXPARAM_MIP_Cuts_GUBCovers 0
32
Node Left Objective IInf Best_Integer Best_Bound ItCnt Gap
0+ 0 nan nan 110.7059 0.0000 nan 100.00%
0+ 0 nan nan 93.8685 0.0000 nan 100.00%
0+ 0 nan nan 89.9070 0.0000 nan 100.00%
0 0 38.4698 13 89.9070 38.4698 148 57.21%
0+ 0 nan nan 82.2491 38.4698 nan 53.23%
0+ 0 nan nan 79.9609 38.4698 nan 51.89%
0+ 0 nan nan 75.5747 38.4698 nan 49.10%
0+ 0 nan nan 70.7197 38.4698 nan 45.60%
0 2 38.4698 13 70.7197 38.4698 148 45.60%
CPXPARAM_MIP_Cuts_GUBCovers 0
33
Node Left Objective IInf Best_Integer Best_Bound ItCnt Gap
0+ 0 nan nan 110.7059 0.0000 nan 100.00%
0+ 0 nan nan 93.8685 0.0000 nan 100.00%
0 0 0.0000 27 93.8685 0.0000 121 100.00%
0+ 0 nan nan 63.7992 0.0000 nan 100.00%
0+ 0 nan nan 30.2851 0.0000 nan 100.00%
0+ 0 nan nan 28.6392 0.0000 nan 100.00%
0+ 0 nan nan 26.7125 0.0000 nan 100.00%
0 2 0.0000 27 26.7125 0.0000 121 100.00%
CPXPARAM_MIP_Cuts_GUBCovers 0
34
Node Left Objective IInf Best_Integer Best_Bound ItCnt Gap
0+ 0 nan nan 110.7059 0.0000 nan 100.00%
0+ 0 nan nan 74.9711 0.0000 nan 100.00%
0 0 29.4698 13 74.9711 29.4698 166 60.69%
0+ 0 nan nan 57.9034 29.4698 nan 49.11%
0+ 0 nan nan 53.0822 29.4698 nan 44.48%
0+ 0 nan nan 49.9403 29.4698 nan 40.99%
0 2 29.4698 13 49.9403 29.4698 166 40.99%
CPXPARAM_MIP_Cuts_GUBCovers 0
35
Node Left Objective IInf Best_Integer Best_Bound ItCnt Gap
0+ 0 nan nan 110.7059 0.0000 nan 100.00%
0+ 0 nan nan 74.9711 0.0000 nan 100.00%
0 0 0.0000 24 74.9711 0.0000 110 100.00%
0+ 0 nan nan 44.1599 0.0000 nan 100.00%
0+ 0 nan nan 40.5064 0.0000 nan 100.00%
0+ 0 nan nan 20.3840 0.0000 nan 100.00%
0 2 0.0000 24 20.3840 0.0000 110 100.00%
CPXPARAM_MIP_Cuts_GUBCovers 0
36
Node Left Objective IInf Best_Integer Best_Bound ItCnt Gap
0+ 0 nan nan 123.7135 0.0000 nan 100.00%
0+ 0 nan nan 108.6148 0.0000 nan 100.00%
0+ 0 nan nan 99.0366 0.0000 nan 100.00%
0 0 33.0392 17 99.0366 33.0392 162 66.64%
0+ 0 nan nan 69.6923 33.0392 nan 52.59%
0+ 0 nan nan 66.3358 33.0392 nan 50.19%
0+ 0 nan nan 57.7363 33.0392 nan 42.78%
0 2 33.0392 17 57.7363 33.0392 162 42.78%
CPXPARAM_MIP_Cuts_GUBCovers 0
37
Node Left Objective IInf Best_Integer Best_Bound ItCnt Gap
0+ 0 nan nan 123.7135 0.0000 nan 100.00%
0+ 0 nan nan 108.6148 0.0000 nan 100.00%
0+ 0 nan nan 79.9437 0.0000 nan 100.00%
0 0 0.0000 27 79.9437 0.0000 123 100.00%
0+ 0 nan nan 60.3094 0.0000 nan 100.00%
0+ 0 nan nan 45.3392 0.0000 nan 100.00%
0+ 0 nan nan 40.0619 0.0000 nan 100.00%
0+ 0 nan nan 38.5305 0.0000 nan 100.00%
0 2 0.0000 27 38.5305 0.0000 123 100.00%
CPXPARAM_MIP_Cuts_GUBCovers 0
38
Node Left Objective IInf Best_Integer Best_Bound ItCnt Gap
0+ 0 nan nan 123.7135 0.0000 nan 100.00%
0+ 0 nan nan 89.1896 0.0000 nan 100.00%
0 0 42.0392 9 89.1896 42.0392 158 52.87%
0+ 0 nan nan 50.0222 42.0392 nan 15.96%
0+ 0 nan nan 48.5094 42.0392 nan 13.34%
0 2 42.0392 6 48.5094 42.0392 158 13.34%
CPXPARAM_MIP_Cuts_GUBCovers 0
39
Node Left Objective IInf Best_Integer Best_Bound ItCnt Gap
0+ 0 nan nan 123.7135 0.0000 nan 100.00%
0+ 0 nan nan 89.1896 0.0000 nan 100.00%
0 0 0.0000 24 89.1896 0.0000 125 100.00%
0+ 0 nan nan 42.3458 0.0000 nan 100.00%
0+ 0 nan nan 21.1143 0.0000 nan 100.00%
0+ 0 nan nan 11.9320 0.0000 nan 100.00%
0 2 0.0000 23 11.9320 0.0000 125 100.00%
CPXPARAM_MIP_Cuts_GUBCovers 0
